859 -15 0 -> 4177行目にある
d 859 -1151 0
d -15 1151 0
15 -859 0
d -859 1151 0
d 15 -1151 0
1098 -799 0
d -799 1133 0
d 1098 -1133 0
799 -1098 0
d 799 -1133 0
d -1098 1133 0
1099 -802 0
d -802 1134 0
d 1099 -1134 0
802 -1099 0
d 802 -1134 0
d -1099 1134 0
1100 -805 0
d -805 1135 0
d 1100 -1135 0
805 -1100 0
d 805 -1135 0
d -1100 1135 0
1102 -811 0
d -811 1137 0
d 1102 -1137 0
811 -1102 0
d 811 -1137 0
d -1102 1137 0
1101 -808 0
d -808 1136 0
d 1101 -1136 0
808 -1101 0
d 808 -1136 0
d -1101 1136 0
1103 -814 0
d -814 1138 0
d 1103 -1138 0
814 -1103 0
d 814 -1138 0
d -1103 1138 0
853 -17 0
d 853 -1149 0
d -17 1149 0
17 -853 0
d -853 1149 0
d 17 -1149 0
850 -18 0
d 850 -1148 0
d -18 1148 0
18 -850 0
d -850 1148 0
d 18 -1148 0
856 -16 0
d 856 -1150 0
d -16 1150 0
16 -856 0
d -856 1150 0
d 16 -1150 0
1104 -817 0
d -817 1139 0
d 1104 -1139 0
817 -1104 0
d 817 -1139 0
d -1104 1139 0
865 -13 0
d 865 -1153 0
d -13 1153 0
13 -865 0
d -865 1153 0
d 13 -1153 0
874 -341 0
d 874 -1155 0
d -341 1155 0
341 -874 0
d -874 1155 0
d 341 -1155 0
862 -14 0
d 862 -1152 0
d -14 1152 0
14 -862 0
d -862 1152 0
d 14 -1152 0
877 -338 0
d 877 -1156 0
d -338 1156 0
338 -877 0
d -877 1156 0
d 338 -1156 0
886 -329 0
d 886 -1159 0
d -329 1159 0
329 -886 0
d -886 1159 0
d 329 -1159 0
883 -332 0
d 883 -1158 0
d -332 1158 0
332 -883 0
d -883 1158 0
d 332 -1158 0
889 -326 0
d 889 -1160 0
d -326 1160 0
326 -889 0
d -889 1160 0
d 326 -1160 0
871 -344 0
d 871 -1154 0
d -344 1154 0
344 -871 0
d -871 1154 0
d 344 -1154 0
880 -335 0
d 880 -1157 0
d -335 1157 0
335 -880 0
d -880 1157 0
d 335 -1157 0
9 -4 0
d 9 -10 0
d -4 10 0
4 -9 0
d -9 10 0
d 4 -10 0
844 -20 0
d -467 844 0
d -20 467 0
20 -844 0
d 467 -844 0
d 20 -467 0
847 -19 0
d 847 -1147 0
d -19 1147 0
19 -847 0
d -847 1147 0
d 19 -1147 0
868 -11 0
d -12 868 0
d -11 12 0
11 -868 0
d 12 -868 0
d 11 -12 0
341 873 -875 0
d 341 -874 0
d 873 -875 874 0
-341 -873 -875 0
d -873 -875 -874 0
d 874 -341 0
332 882 -884 0
d 332 -883 0
d 882 -884 883 0
-332 -882 -884 0
d -882 -884 -883 0
d 883 -332 0
4 3 -797 0
d 3 -797 9 0
d 4 -9 0
-4 -3 -797 0
d 9 -4 0
d -3 -797 -9 0
11 867 -869 0
d 11 -868 0
d 867 -869 868 0
-11 -867 -869 0
d -867 -869 -868 0
d 868 -11 0
18 849 -851 0
d 18 -850 0
d 849 -851 850 0
-18 -849 -851 0
d -849 -851 -850 0
d 850 -18 0
344 870 -872 0
d 344 -871 0
d 870 -872 871 0
-344 -870 -872 0
d -870 -872 -871 0
d 871 -344 0
335 879 -881 0
d 335 -880 0
d 879 -881 880 0
-335 -879 -881 0
d -879 -881 -880 0
d 880 -335 0
14 861 -863 0
d 14 -862 0
d 861 -863 862 0
-14 -861 -863 0
d -861 -863 -862 0
d 862 -14 0
15 858 -860 0
d 15 -859 0
d 858 -860 859 0
-15 -858 -860 0
d -858 -860 -859 0
d 859 -15 0
16 855 -857 0
d 16 -856 0
d 855 -857 856 0
-16 -855 -857 0
d -855 -857 -856 0
d 856 -16 0
13 864 -866 0
d 13 -865 0
d 864 -866 865 0
-13 -864 -866 0
d -864 -866 -865 0
d 865 -13 0
1099 801 -803 0
d 801 -803 802 0
d 1099 -802 0
-1099 -801 -803 0
d 802 -1099 0
d -801 -803 -802 0
1104 816 -818 0
d 816 -818 817 0
d 1104 -817 0
-1104 -816 -818 0
d 817 -1104 0
d -816 -818 -817 0
1103 813 -815 0
d 813 -815 814 0
d 1103 -814 0
-1103 -813 -815 0
d 814 -1103 0
d -813 -815 -814 0
1101 807 -809 0
d 807 -809 808 0
d 1101 -808 0
-1101 -807 -809 0
d 808 -1101 0
d -807 -809 -808 0
19 846 -848 0
d 19 -847 0
d 846 -848 847 0
-19 -846 -848 0
d -846 -848 -847 0
d 847 -19 0
338 876 -878 0
d 338 -877 0
d 876 -878 877 0
-338 -876 -878 0
d -876 -878 -877 0
d 877 -338 0
326 888 -890 0
d 326 -889 0
d 888 -890 889 0
-326 -888 -890 0
d -888 -890 -889 0
d 889 -326 0
1100 804 -806 0
d 804 -806 805 0
d 1100 -805 0
-1100 -804 -806 0
d 805 -1100 0
d -804 -806 -805 0
329 885 -887 0
d 329 -886 0
d 885 -887 886 0
-329 -885 -887 0
d -885 -887 -886 0
d 886 -329 0
17 852 -854 0
d 17 -853 0
d 852 -854 853 0
-17 -852 -854 0
d -852 -854 -853 0
d 853 -17 0
1102 810 -812 0
d 810 -812 811 0
d 1102 -811 0
-1102 -810 -812 0
d 811 -1102 0
d -810 -812 -811 0
1098 798 -800 0
d 798 -800 799 0
d 1098 -799 0
-1098 -798 -800 0
d 799 -1098 0
d -798 -800 -799 0
20 843 -845 0
d 20 -844 0
d 843 -845 844 0
-20 -843 -845 0
d -843 -845 -844 0
d 844 -20 0
4 -797 0
d 4 3 -797 0
-3 -797 0
d -3 4 0
d -4 -3 -797 0
867 -869 0
d 11 867 -869 0
-11 -869 0
d -11 867 0
d -11 -867 -869 0
864 -866 0
d 13 864 -866 0
-13 -866 0
d -13 864 0
d -13 -864 -866 0
861 -863 0
d 14 861 -863 0
-14 -863 0
d -14 861 0
d -14 -861 -863 0
858 -860 0
d 15 858 -860 0
-15 -860 0
d -15 858 0
d -15 -858 -860 0
855 -857 0
d 16 855 -857 0
-16 -857 0
d -16 855 0
d -16 -855 -857 0
852 -854 0
d 17 852 -854 0
-17 -854 0
d -17 852 0
d -17 -852 -854 0
849 -851 0
d 18 849 -851 0
-18 -851 0
d -18 849 0
d -18 -849 -851 0
846 -848 0
d 19 846 -848 0
-19 -848 0
d -19 846 0
d -19 -846 -848 0
843 -845 0
d 20 843 -845 0
-20 -845 0
d -20 843 0
d -20 -843 -845 0
888 -890 0
d 326 888 -890 0
-326 -890 0
d -326 888 0
d -326 -888 -890 0
885 -887 0
d 329 885 -887 0
-329 -887 0
d -329 885 0
d -329 -885 -887 0
882 -884 0
d 332 882 -884 0
-332 -884 0
d -332 882 0
d -332 -882 -884 0
879 -881 0
d 335 879 -881 0
-335 -881 0
d -335 879 0
d -335 -879 -881 0
876 -878 0
d 338 876 -878 0
-338 -878 0
d -338 876 0
d -338 -876 -878 0
873 -875 0
d 341 873 -875 0
-341 -875 0
d -341 873 0
d -341 -873 -875 0
870 -872 0
d 344 870 -872 0
-344 -872 0
d -344 870 0
d -344 -870 -872 0
-800 1098 0
d 1098 798 -800 0
-798 -800 0
d -798 1098 0
d -1098 -798 -800 0
-803 1099 0
d 1099 801 -803 0
-801 -803 0
d -801 1099 0
d -1099 -801 -803 0
-806 1100 0
d 1100 804 -806 0
-804 -806 0
d -804 1100 0
d -1100 -804 -806 0
-809 1101 0
d 1101 807 -809 0
-807 -809 0
d -807 1101 0
d -1101 -807 -809 0
-812 1102 0
d 1102 810 -812 0
-810 -812 0
d -810 1102 0
d -1102 -810 -812 0
-815 1103 0
d 1103 813 -815 0
-813 -815 0
d -813 1103 0
d -1103 -813 -815 0
-818 1104 0
d -816 1104 0
d 1104 816 -818 0
-816 -818 0
d -1104 -816 -818 0
-845 0
d -20 -845 0
d 843 -845 0
d 20 -843 0
-848 0
d -19 -848 0
d 846 -848 0
d 19 -846 0
-854 0
d -17 -854 0
d 852 -854 0
d 17 -852 0
-800 0
d -798 -800 0
d -800 1098 0
d 798 -1098 0
-851 0
d -18 -851 0
d 849 -851 0
d 18 -849 0
-866 0
d -13 -866 0
d 864 -866 0
d 13 -864 0
-812 0
d -810 -812 0
d -812 1102 0
d 810 -1102 0
-818 0
d -816 -818 0
d -818 1104 0
d 816 -1104 0
-860 0
d -15 -860 0
d 858 -860 0
d 15 -858 0
-797 0
d -3 -797 0
d 4 -797 0
d 3 -4 0
-857 0
d -16 -857 0
d 855 -857 0
d 16 -855 0
-815 0
d -813 -815 0
d -815 1103 0
d 813 -1103 0
-803 0
d -801 -803 0
d -803 1099 0
d 801 -1099 0
-863 0
d -14 -863 0
d 861 -863 0
d 14 -861 0
-809 0
d -807 -809 0
d -809 1101 0
d 807 -1101 0
-806 0
d -804 -806 0
d -806 1100 0
d 804 -1100 0
-878 0
d -338 -878 0
d 876 -878 0
d 338 -876 0
-869 0
d -11 -869 0
d 867 -869 0
d 11 -867 0
-875 0
d -341 -875 0
d 873 -875 0
d 341 -873 0
-881 0
d -335 -881 0
d 879 -881 0
d 335 -879 0
-887 0
d -329 -887 0
d 885 -887 0
d 329 -885 0
-890 0
d -326 -890 0
d 888 -890 0
d 326 -888 0
-884 0
d -332 -884 0
d 882 -884 0
d 332 -882 0
0
